coords = array2d(1..47, 1..2, [474, 316, 364, 750, 550, 151, 719, 550, 62, 379,
    191, 790, 314, 469, 16, 168, 591, 180, 902, 268, 967, 300, 934,
    528, 749, 94, 965, 158, 348, 772, 301, 588, 721, 627, 526, 103,
    848, 601, 660, 97, 331, 28, 874, 602, 281, 957, 834, 981, 690,
    631, 676, 700, 264, 17, 319, 356, 448, 614, 897, 446, 535, 102,
    320, 426, 722, 859, 598, 98, 287, 905, 987, 878, 873, 597, 235,
    777, 324, 223, 675, 939, 763, 231, 159, 765, 628, 915, 176, 729,
    702, 155, 777, 936, 889, 141]);

n = 47;

